
NODE_COORD_SECTION
A     8.5              20.0
B     12.0             30.0
C     5.5              18.0
D     10.5             25.0
E     3.5              15.0
F     8.0              22.5
G     15.0             35.0
H     6.5              20.0
I     12.0             28.0
J     10.0             32.0
K     8.5              22.0
L     6.0              18.5
M     3.0              12.5
N     10.0             28.5
O     15.5             34.0
EOF
